51	12	4	41	
10	10	10	10

0	0	0	0	0	0	2	1	2
1	7	0	9	9	2	2	4	7
2	4	1	0	0	10	2	3	6
3	10	0	4	0	4	2	7	9
4	8	0	5	9	8	1	5
5	7	6	9	8	1	1	6
6	0	8	0	3	3	2	8	9
7	6	0	0	1	7	1	8
8	10	2	8	7	3	1	10
9	3	7	2	7	8	1	11
10	2	3	1	4	5	1	11
11	0	0	0	0	0	0
